coords = array2d(1..70, 1..2, [523, 535, 707, 738, 420, 143, 737, 522, 428,
    650, 587, 601, 505, 89, 168, 708, 804, 131, 286, 379, 597, 106,
    12, 498, 117, 708, 629, 498, 505, 425, 371, 239, 700, 265, 87,
    285, 928, 639, 725, 351, 100, 917, 501, 542, 669, 990, 977, 688,
    912, 812, 429, 192, 901, 76, 412, 849, 865, 857, 386, 594, 119,
    88, 45, 990, 407, 578, 640, 917, 860, 582, 492, 850, 179, 465,
    586, 266, 197, 321, 732, 600, 835, 360, 553, 955, 509, 455, 42,
    835, 418, 313, 993, 423, 462, 196, 483, 406, 5, 98, 125, 473, 37,
    831, 153, 114, 994, 189, 236, 397, 159, 387, 173, 786, 40, 732,
    297, 202, 850, 871, 380, 812, 341, 831, 915, 795, 74, 59, 287,
    367, 426, 82, 599, 851, 860, 262, 68, 792, 622, 804, 675, 755]);

n = 70;

